NAME : eilD76.50.690.tour
COMMENT : Length = 690
COMMENT : Found by LKH [Keld Helsgaun] Mon Dec 10 23:16:06 2018
TYPE : TOUR
DIMENSION : 79
TOUR_SECTION
1
7
17
45
33
51
19
25
57
65
43
42
44
2
74
34
64
24
50
4
52
78
5
53
35
47
9
55
20
36
8
68
79
69
3
63
23
29
75
31
49
37
21
71
61
72
70
62
22
48
6
38
16
58
14
28
30
46
76
77
27
13
41
73
59
11
39
67
15
60
54
12
66
32
56
26
10
40
18
-1
EOF
